# timeStepSize = 0.5, modelTimeStep = 0.5

******************************************************************************
This program contains Ipopt, a library for large-scale nonlinear optimization.
 Ipopt is released as open source code under the Eclipse Public License (EPL).
         For more information visit http://projects.coin-or.org/Ipopt
******************************************************************************

This is Ipopt version 3.12.8, running with linear solver mumps.
NOTE: Other linear solvers might be more efficient (see Ipopt documentation).

Number of nonzeros in equality constraint Jacobian...:     1047
Number of nonzeros in inequality constraint Jacobian.:        0
Number of nonzeros in Lagrangian Hessian.............:        0

Total number of variables............................:      450
                     variables with only lower bounds:        0
                variables with lower and upper bounds:      450
                     variables with only upper bounds:        0
Total number of equality constraints.................:      312
Total number of inequality constraints...............:        0
        inequality constraints with only lower bounds:        0
   inequality constraints with lower and upper bounds:        0
        inequality constraints with only upper bounds:        0

iter    objective    inf_pr   inf_du lg(mu)  ||d||  lg(rg) alpha_du alpha_pr  ls
   0  0.0000000e+00 2.50e+03 0.00e+00   0.0 0.00e+00    -  0.00e+00 0.00e+00   0
   1  6.5323722e+02 6.25e+02 3.65e+01  -4.0 2.50e+01    -  7.92e-01 1.00e+00h  1
   2  8.6580064e+02 1.56e+02 1.98e+01  -4.7 1.60e+01    -  8.49e-01 1.00e+00h  1
   3  8.0743596e+02 3.91e+01 2.12e+01  -0.8 1.32e+01    -  9.56e-01 1.00e+00f  1
   4  7.6780445e+02 9.77e+00 1.84e+01  -1.5 1.14e+01    -  9.98e-01 1.00e+00f  1
   5  5.8728778e+02 2.44e+00 1.70e+01  -2.6 7.08e+00    -  1.00e+00 1.00e+00f  1
   6  4.7712912e+02 6.10e-01 1.21e+01  -3.8 6.67e+00    -  1.00e+00 1.00e+00f  1
   7  3.7996361e+02 1.53e-01 1.07e+01  -5.0 5.15e+00    -  1.00e+00 1.00e+00f  1
   8  2.9017786e+02 3.81e-02 8.82e+00  -6.2 7.93e+00    -  1.00e+00 1.00e+00f  1
   9  1.6515826e+02 2.15e-02 7.54e+00  -7.3 1.18e+01    -  1.00e+00 5.00e-01f  2
iter    objective    inf_pr   inf_du lg(mu)  ||d||  lg(rg) alpha_du alpha_pr  ls
  10  1.3774924e+02 1.21e-02 8.44e+00  -8.1 8.75e+00    -  1.00e+00 5.00e-01f  2
  11  9.8641197e+01 3.02e-03 5.37e+00  -9.4 3.16e+00    -  1.00e+00 1.00e+00f  1
  12  7.5142633e+01 7.54e-04 6.20e+00 -10.6 1.69e+00    -  1.00e+00 1.00e+00f  1
  13  7.4098880e+01 1.89e-04 6.18e+00 -11.0 4.64e-01    -  1.00e+00 1.00e+00f  1
  14  7.3756355e+01 4.71e-05 6.55e+00 -11.0 1.27e-01    -  1.00e+00 1.00e+00f  1
  15  7.3467713e+01 1.65e-05 4.18e+00 -11.0 2.72e-01    -  1.00e+00 1.00e+00f  1
  16  7.3335529e+01 8.72e-06 3.56e+00 -11.0 6.42e-01    -  1.00e+00 5.00e-01f  2
  17  7.3308239e+01 6.26e-06 5.95e+00 -11.0 4.12e-01    -  1.00e+00 1.00e+00f  1
  18  7.3204768e+01 2.06e-06 7.57e+00 -11.0 3.13e-01    -  1.00e+00 1.00e+00f  1
  19  7.3165187e+01 4.44e-05 7.04e+00 -11.0 2.23e-01    -  1.00e+00 1.00e+00f  1
iter    objective    inf_pr   inf_du lg(mu)  ||d||  lg(rg) alpha_du alpha_pr  ls
  20  7.2906651e+01 7.46e-07 6.06e+00 -11.0 1.45e-01    -  1.00e+00 1.00e+00f  1
  21  7.2892533e+01 2.80e-07 5.07e+00 -11.0 6.73e-02    -  1.00e+00 1.00e+00f  1
  22  7.2892022e+01 5.35e-07 4.09e+00 -11.0 2.22e-01    -  1.00e+00 5.00e-01f  2
  23  7.2889738e+01 4.63e-06 4.88e+00 -11.0 1.76e-01    -  1.00e+00 1.25e-01f  4
  24  7.2888793e+01 1.75e-06 5.42e+00 -11.0 7.21e-02    -  1.00e+00 1.00e+00f  1
  25  7.2885394e+01 7.93e-07 5.51e+00 -11.0 4.48e-02    -  1.00e+00 5.00e-01f  2
  26  7.2884416e+01 3.92e-07 3.69e+01 -11.0 2.01e-02    -  1.00e+00 5.00e-01f  2
  27  7.2882191e+01 4.83e-04 2.01e+06 -10.7 6.62e+01    -  1.00e+00 2.44e-04f 13
  28  7.2882871e+01 4.88e-07 5.03e+05 -11.0 1.94e-02    -  1.00e+00 1.00e+00h  1
  29  7.2883500e+01 1.11e-07 4.83e-03 -11.0 3.91e-03    -  1.00e+00 1.00e+00h  1
iter    objective    inf_pr   inf_du lg(mu)  ||d||  lg(rg) alpha_du alpha_pr  ls
  30  7.3040973e+01 3.27e-07 1.68e-01 -11.0 1.29e-01    -  1.00e+00 1.00e+00H  1
  31  7.2889776e+01 7.94e-07 2.51e+01 -11.0 1.35e-01    -  1.00e+00 1.00e+00f  1
  32  7.2887058e+01 1.18e-06 1.55e+01 -11.0 6.15e-01    -  1.00e+00 6.25e-02f  5
  33  7.2886248e+01 2.38e-05 8.40e+00 -11.0 3.77e-02    -  1.00e+00 5.00e-01f  2
  34  7.2886178e+01 2.37e-05 8.08e+00 -11.0 2.25e+01    -  1.00e+00 9.77e-04f 11
  35  7.2883595e+01 1.94e-06 2.67e+00 -11.0 3.50e-02    -  1.00e+00 1.00e+00h  1
  36  7.2885347e+01 8.24e-07 5.91e+00 -11.0 2.03e-02    -  1.00e+00 1.00e+00h  1
  37  7.2883038e+01 4.83e-07 7.39e+00 -11.0 1.88e-02    -  1.00e+00 1.00e+00f  1
  38  7.2882990e+01 2.74e-07 1.50e+01 -11.0 1.74e-03    -  1.00e+00 1.00e+00h  1
  39  7.2883028e+01 9.19e-09 6.87e-03 -11.0 5.30e-03    -  1.00e+00 1.00e+00H  1
iter    objective    inf_pr   inf_du lg(mu)  ||d||  lg(rg) alpha_du alpha_pr  ls
  40  7.2883059e+01 6.38e-09 6.61e-03 -11.0 6.98e-03    -  1.00e+00 1.00e+00H  1
  41  7.2883030e+01 4.29e-07 1.52e+01 -11.0 5.24e-03    -  1.00e+00 1.00e+00f  1
  42  7.2883001e+01 4.70e-07 7.62e+00 -11.0 4.98e-03    -  1.00e+00 1.00e+00h  1
  43  7.2882940e+01 9.60e-06 1.56e+05 -11.0 3.44e+03    -  2.09e-02 2.53e-06f 14
  44  7.2882909e+01 5.07e-07 3.91e+04 -11.0 3.64e-03    -  1.00e+00 1.00e+00h  1
  45  7.2886119e+01 3.43e-07 6.80e+03 -11.0 1.80e-02    -  1.00e+00 1.00e+00H  1
  46  7.2886111e+01 3.31e-07 6.80e+03 -11.0 2.03e+01    -  1.00e+00 6.10e-05f 15
  47  7.2886110e+01 3.31e-07 6.80e+03 -11.0 1.62e+01    -  1.00e+00 7.63e-06h 18
  48  7.2886109e+01 3.31e-07 6.80e+03 -11.0 1.65e+01    -  1.00e+00 1.91e-06h 20
  49  7.2886109e+01 3.31e-07 6.80e+03 -11.0 3.08e+00    -  1.00e+00 1.91e-06h 20
iter    objective    inf_pr   inf_du lg(mu)  ||d||  lg(rg) alpha_du alpha_pr  ls
  50  7.2886109e+01 3.31e-07 6.80e+03 -11.0 3.08e+00    -  1.00e+00 1.91e-06h 20
  51  7.2886053e+01 6.97e-07 6.80e+03 -11.0 3.11e+00    -  1.00e+00 9.77e-04f 11
  52  7.2884811e+01 7.17e-07 5.22e+00 -11.0 4.22e-02    -  1.00e+00 1.00e+00f  1
  53  7.2883004e+01 6.10e-07 6.34e+00 -11.0 1.93e-02    -  1.00e+00 1.00e+00f  1
  54  7.2883004e+01 5.19e-07 5.19e+00 -11.0 1.43e-03    -  1.00e+00 1.00e+00h  1
  55  7.2883000e+01 9.83e-05 5.58e+00 -11.0 4.31e-04    -  1.00e+00 1.00e+00h  1
  56  7.2883000e+01 4.89e-05 4.84e+00 -11.0 4.74e-03    -  1.00e+00 5.00e-01h  2
  57  7.2882990e+01 1.62e-06 6.58e+00 -11.0 2.85e-03    -  1.00e+00 1.00e+00h  1
  58  7.2882980e+01 2.23e-06 7.25e+00 -11.0 2.83e-03    -  1.00e+00 1.00e+00h  1
  59  7.2882962e+01 7.71e-06 6.58e+00 -11.0 2.43e-03    -  1.00e+00 1.00e+00h  1
iter    objective    inf_pr   inf_du lg(mu)  ||d||  lg(rg) alpha_du alpha_pr  ls
  60  7.2882952e+01 7.68e-06 7.93e+03 -11.0 2.26e+02    -  4.42e-01 6.74e-06f 17
  61  7.2882958e+01 1.43e-06 1.99e+03 -11.0 2.33e-03    -  1.00e+00 1.00e+00h  1
  62  7.2882958e+01 1.43e-06 1.98e+03 -11.0 4.15e-02    -  1.00e+00 1.95e-03h 10
  63  7.2882956e+01 2.66e-06 1.97e+03 -11.0 1.09e+00    -  1.00e+00 3.91e-03h  9
  64  7.2882955e+01 2.65e-06 1.96e+03 -11.0 1.16e-01    -  1.00e+00 3.91e-03h  9
  65  7.2882955e+01 2.65e-06 1.96e+03 -11.0 8.07e-02    -  1.00e+00 1.22e-04h 14
  66  7.2908301e+01 1.66e-03 1.84e+01 -11.0 5.90e-02    -  1.00e+00 1.00e+00s 22
  67r 7.2908301e+01 1.66e-03 9.99e+02  -2.8 0.00e+00    -  0.00e+00 0.00e+00R  1
  68r 7.2908308e+01 7.44e-05 4.44e-01  -9.2 1.65e+00    -  1.00e+00 9.91e-04f  1
  69r 7.2908309e+01 8.81e-07 2.88e-05  -9.1 7.52e-05    -  1.00e+00 9.88e-01f  1
iter    objective    inf_pr   inf_du lg(mu)  ||d||  lg(rg) alpha_du alpha_pr  ls
  70r 7.2908309e+01 2.33e-08 1.52e-06  -9.3 3.21e-06    -  1.00e+00 9.99e-01f  1
  71  7.2906121e+01 5.24e-07 1.26e+00 -11.0 1.97e-01    -  1.00e+00 1.25e-01f  4
  72  7.2902227e+01 4.82e-07 4.14e+00 -11.0 1.35e+00    -  1.00e+00 3.12e-02f  6
  73  7.2898028e+01 4.82e-07 3.68e+00 -11.0 2.87e+00    -  1.00e+00 3.91e-03f  9
  74  7.2897678e+01 4.80e-07 4.26e+00 -11.0 4.10e-01    -  1.00e+00 3.91e-03f  9
  75  7.2897285e+01 4.69e-07 4.21e+00 -11.0 1.00e-01    -  1.00e+00 7.81e-03f  8
  76  7.2883756e+01 6.43e-09 3.69e-02 -11.0 6.47e-02    -  1.00e+00 1.00e+00F  1
  77  7.2883435e+01 2.34e-07 3.33e+00 -11.0 6.63e-02    -  1.00e+00 5.00e-01f  2
  78  7.2882951e+01 1.75e-07 6.41e+00 -11.0 1.20e-02    -  1.00e+00 1.00e+00h  1
  79  7.2882982e+01 1.78e-08 6.49e-03 -11.0 4.00e-03    -  1.00e+00 1.00e+00H  1
iter    objective    inf_pr   inf_du lg(mu)  ||d||  lg(rg) alpha_du alpha_pr  ls
  80  7.2882950e+01 1.43e-06 1.11e+01 -11.0 2.64e-03    -  1.00e+00 1.00e+00h  1
  81  7.2882948e+01 1.09e-06 5.18e+00 -11.0 1.24e-03    -  1.00e+00 1.00e+00h  1
  82  7.2882947e+01 4.66e-07 5.42e+00 -11.0 4.66e-04    -  1.00e+00 1.00e+00h  1
  83  7.2883005e+01 6.25e-07 7.74e+00 -11.0 3.02e-03    -  1.00e+00 1.00e+00H  1
  84  7.2883005e+01 6.38e-07 3.26e+02 -11.0 3.79e+02    -  2.64e-01 5.03e-07f 20
  85r 7.2883005e+01 6.38e-07 9.99e+02  -6.2 0.00e+00    -  0.00e+00 4.77e-07R 22
  86r 7.2883005e+01 1.35e-07 1.71e-04  -9.3 6.38e-04    -  1.00e+00 9.90e-04f  1

Number of Iterations....: 86

                                   (scaled)                 (unscaled)
Objective...............:   7.2883005435153166e+01    7.2883005435153166e+01
Dual infeasibility......:   5.4861543234368980e-03    5.4861543234368980e-03
Constraint violation....:   1.3502071438686869e-07    1.3502071438686869e-07
Complementarity.........:   1.0000000003356432e-11    1.0000000003356432e-11
Overall NLP error.......:   5.5908286795443098e-07    5.4861543234368980e-03


Number of objective function evaluations             = 523
Number of objective gradient evaluations             = 86
Number of equality constraint evaluations            = 523
Number of inequality constraint evaluations          = 0
Number of equality constraint Jacobian evaluations   = 90
Number of inequality constraint Jacobian evaluations = 0
Number of Lagrangian Hessian evaluations             = 0
Total CPU secs in IPOPT (w/o function evaluations)   =     11.630
Total CPU secs in NLP function evaluations           =   6828.460

EXIT: Solved To Acceptable Level.


Solution of the primal variables, x
x[0] = 2.720050e-08
x[1] = -4.406228e-08
x[2] = -8.645976e-08
x[3] = 1.380927e-07
x[4] = 1.045986e-08
x[5] = 4.278894e-08
x[6] = -3.695331e-01
x[7] = 7.386487e-01
x[8] = 1.107887e+00
x[9] = -9.238327e-02
x[10] = 1.846622e-01
x[11] = 2.769717e-01
x[12] = -1.847665e-01
x[13] = 3.693243e-01
x[14] = 5.539433e-01
x[15] = -3.386601e-01
x[16] = 6.770347e-01
x[17] = 1.015526e+00
x[18] = -2.694316e-01
x[19] = 5.385830e-01
x[20] = 8.078248e-01
x[21] = -3.540966e-01
x[22] = 7.078417e-01
x[23] = 1.061706e+00
x[24] = -3.077773e-01
x[25] = 6.154199e-01
x[26] = 9.231651e-01
x[27] = -5.234242e-01
x[28] = 1.046359e+00
x[29] = 1.569469e+00
x[30] = -5.079853e-01
x[31] = 1.015552e+00
x[32] = 1.523289e+00
x[33] = -2.768873e-01
x[34] = 5.538175e-01
x[35] = 8.308052e-01
x[36] = -8.466386e-01
x[37] = 1.692589e+00
x[38] = 2.538815e+00
x[39] = -6.464289e-01
x[40] = 1.292460e+00
x[41] = 1.938691e+00
x[42] = -2.460062e-01
x[43] = 4.922385e-01
x[44] = 7.384628e-01
x[45] = -1.231355e+00
x[46] = 2.461879e+00
x[47] = 3.692776e+00
x[48] = -7.694320e-01
x[49] = 1.538580e+00
x[50] = 2.307923e+00
x[51] = -2.151424e-01
x[52] = 4.306857e-01
x[53] = 6.461313e-01
x[54] = -1.669856e+00
x[55] = 3.338840e+00
x[56] = 5.008271e+00
x[57] = -8.770032e-01
x[58] = 1.753922e+00
x[59] = 2.630988e+00
x[60] = -1.843037e-01
x[61] = 3.691520e-01
x[62] = 5.538080e-01
x[63] = -2.154434e+00
x[64] = 4.308089e+00
x[65] = 6.462217e+00
x[66] = -9.691551e-01
x[67] = 1.938498e+00
x[68] = 2.907893e+00
x[69] = -1.535104e-01
x[70] = 3.076387e-01
x[71] = 4.614777e-01
x[72] = -2.677389e+00
x[73] = 5.354248e+00
x[74] = 8.031533e+00
x[75] = -1.045910e+00
x[76] = 2.092318e+00
x[77] = 3.138631e+00
x[78] = -1.228241e-01
x[79] = 2.461195e-01
x[80] = 3.691150e-01
x[81] = -3.231050e+00
x[82] = 6.461937e+00
x[83] = 9.693127e+00
x[84] = -1.107322e+00
x[85] = 2.215378e+00
x[86] = 3.323189e+00
x[87] = -9.224107e-02
x[88] = 1.845698e-01
x[89] = 2.766994e-01
x[90] = -3.807772e+00
x[91] = 7.615768e+00
x[92] = 1.142390e+01
x[93] = -1.153443e+00
x[94] = 2.307662e+00
x[95] = 3.461539e+00
x[96] = -6.174338e-02
x[97] = 1.229171e-01
x[98] = 1.841474e-01
x[99] = -4.399929e+00
x[100] = 8.800329e+00
x[101] = 1.320070e+01
x[102] = -1.184315e+00
x[103] = 2.369121e+00
x[104] = 3.553612e+00
x[105] = -3.117018e-02
x[106] = 6.126688e-02
x[107] = 9.149032e-02
x[108] = -4.999879e+00
x[109] = 1.000021e+01
x[110] = 1.500038e+01
x[111] = -1.199900e+00
x[112] = 2.399754e+00
x[113] = 3.599357e+00
x[114] = -2.164680e-04
x[115] = 5.796505e-04
x[116] = 1.910505e-03
x[117] = -5.599883e+00
x[118] = 1.120023e+01
x[119] = 1.680054e+01
x[120] = -1.200008e+00
x[121] = 2.400044e+00
x[122] = 3.600313e+00
x[123] = 3.041725e-02
x[124] = -6.177001e-02
x[125] = -9.307991e-02
x[126] = -6.192282e+00
x[127] = 1.238481e+01
x[128] = 1.857742e+01
x[129] = -1.184799e+00
x[130] = 2.369159e+00
x[131] = 3.553773e+00
x[132] = 6.129821e-02
x[133] = -1.231879e-01
x[134] = -1.849972e-01
x[135] = -6.769357e+00
x[136] = 1.353859e+01
x[137] = 2.030806e+01
x[138] = -1.154150e+00
x[139] = 2.307565e+00
x[140] = 3.461274e+00
x[141] = 9.230281e-02
x[142] = -1.845866e-01
x[143] = -2.770019e-01
x[144] = -7.323357e+00
x[145] = 1.464623e+01
x[146] = 2.196945e+01
x[147] = -1.107999e+00
x[148] = 2.215272e+00
x[149] = 3.322773e+00
x[150] = 1.232627e-01
x[151] = -2.460969e-01
x[152] = -3.691537e-01
x[153] = -7.846540e+00
x[154] = 1.569234e+01
x[155] = 2.353855e+01
x[156] = -1.046367e+00
x[157] = 2.092224e+00
x[158] = 3.138196e+00
x[159] = 1.541161e-01
x[160] = -3.076309e-01
x[161] = -4.613914e-01
x[162] = -8.331195e+00
x[163] = 1.666154e+01
x[164] = 2.499230e+01
x[165] = -9.693093e-01
x[166] = 1.938408e+00
x[167] = 2.907501e+00
x[168] = 1.848668e-01
x[169] = -3.691738e-01
x[170] = -5.536882e-01
x[171] = -8.769633e+00
x[172] = 1.753845e+01
x[173] = 2.630762e+01
x[174] = -8.768759e-01
x[175] = 1.753821e+00
x[176] = 2.630657e+00
x[177] = 2.155725e-01
x[178] = -4.307290e-01
x[179] = -6.460012e-01
x[180] = -9.154178e+00
x[181] = 1.830768e+01
x[182] = 2.746145e+01
x[183] = -7.690897e-01
x[184] = 1.538457e+00
x[185] = 2.307656e+00
x[186] = 2.462567e-01
x[187] = -4.922835e-01
x[188] = -7.383444e-01
x[189] = -9.477158e+00
x[190] = 1.895384e+01
x[191] = 2.843069e+01
x[192] = -6.459613e-01
x[193] = 1.292315e+00
x[194] = 1.938484e+00
x[195] = 2.769345e-01
x[196] = -5.538438e-01
x[197] = -8.307046e-01
x[198] = -9.730905e+00
x[199] = 1.946154e+01
x[200] = 2.919226e+01
x[201] = -5.074941e-01
x[202] = 1.015393e+00
x[203] = 1.523131e+00
x[204] = 3.076342e-01
x[205] = -6.153909e-01
x[206] = -9.230706e-01
x[207] = -9.907744e+00
x[208] = 1.981538e+01
x[209] = 2.972306e+01
x[210] = -3.536770e-01
x[211] = 7.076976e-01
x[212] = 1.061596e+00
x[213] = 3.383296e-01
x[214] = -6.769314e-01
x[215] = -1.015424e+00
x[216] = -1.000000e+01
x[217] = 2.000000e+01
x[218] = 3.000000e+01
x[219] = -1.845122e-01
x[220] = 3.692319e-01
x[221] = 5.538841e-01
x[222] = 3.690239e-01
x[223] = -7.384638e-01
x[224] = -1.107768e+00
x[225] = -1.000000e+01
x[226] = 2.000000e+01
x[227] = 3.000000e+01
x[228] = -1.795123e-07
x[229] = -5.715625e-09
x[230] = -3.626915e-08
x[231] = 2.400034e+00
x[232] = 8.002706e-01
x[233] = -3.593224e-04
x[234] = -9.399992e+00
x[235] = 2.020007e+01
x[236] = 2.999991e+01
x[237] = 1.200017e+00
x[238] = 4.001353e-01
x[239] = -1.796974e-04
x[240] = 2.191317e+00
x[241] = 7.306019e-01
x[242] = 1.122274e-03
x[243] = -8.252154e+00
x[244] = 2.058279e+01
x[245] = 3.000010e+01
x[246] = 2.295675e+00
x[247] = 7.654362e-01
x[248] = 3.814396e-04
x[249] = 1.982586e+00
x[250] = 6.609282e-01
x[251] = -1.766356e-03
x[252] = -6.608670e+00
x[253] = 2.113074e+01
x[254] = 2.999985e+01
x[255] = 3.286968e+00
x[256] = 1.095900e+00
x[257] = -5.017385e-04
x[258] = 1.773834e+00
x[259] = 5.912625e-01
x[260] = 3.066840e-03
x[261] = -4.521727e+00
x[262] = 2.182650e+01
x[263] = 3.000037e+01
x[264] = 4.173885e+00
x[265] = 1.391532e+00
x[266] = 1.031682e-03
x[267] = 1.565082e+00
x[268] = 5.216000e-01
x[269] = -1.412188e-03
x[270] = -2.043514e+00
x[271] = 2.265267e+01
x[272] = 3.000053e+01
x[273] = 4.956426e+00
x[274] = 1.652332e+00
x[275] = 3.255875e-04
x[276] = 1.356362e+00
x[277] = 4.519540e-01
x[278] = -9.954591e-04
x[279] = 7.737895e-01
x[280] = 2.359182e+01
x[281] = 3.000044e+01
x[282] = 5.634607e+00
x[283] = 1.878309e+00
x[284] = -1.721421e-04
x[285] = 1.147694e+00
x[286] = 3.823561e-01
x[287] = -4.610355e-04
x[288] = 3.878017e+00
x[289] = 2.462657e+01
x[290] = 3.000024e+01
x[291] = 6.208454e+00
x[292] = 2.069487e+00
x[293] = -4.026598e-04
x[294] = 9.390649e-01
x[295] = 3.128360e-01
x[296] = 2.149297e-03
x[297] = 7.217010e+00
x[298] = 2.573952e+01
x[299] = 3.000058e+01
x[300] = 6.677987e+00
x[301] = 2.225905e+00
x[302] = 6.719887e-04
x[303] = 7.304726e-01
x[304] = 2.433429e-01
x[305] = -9.619507e-04
x[306] = 1.073862e+01
x[307] = 2.691331e+01
x[308] = 3.000067e+01
x[309] = 7.043223e+00
x[310] = 2.347576e+00
x[311] = 1.910134e-04
x[312] = 5.218897e-01
x[313] = 1.738580e-01
x[314] = -8.562755e-04
x[315] = 1.439071e+01
x[316] = 2.813056e+01
x[317] = 3.000055e+01
x[318] = 7.304168e+00
x[319] = 2.434505e+00
x[320] = -2.371244e-04
x[321] = 3.132936e-01
x[322] = 1.043401e-01
x[323] = 1.841672e-03
x[324] = 1.812111e+01
x[325] = 2.937390e+01
x[326] = 3.000090e+01
x[327] = 7.460815e+00
x[328] = 2.486675e+00
x[329] = 6.837117e-04
x[330] = 1.046266e-01
x[331] = 3.477712e-02
x[332] = -1.157496e-03
x[333] = 2.187768e+01
x[334] = 3.062593e+01
x[335] = 3.000095e+01
x[336] = 7.513128e+00
x[337] = 2.504064e+00
x[338] = 1.049638e-04
x[339] = -1.040816e-01
x[340] = -3.470553e-02
x[341] = 1.041073e-04
x[342] = 2.560822e+01
x[343] = 3.186928e+01
x[344] = 3.000103e+01
x[345] = 7.461087e+00
x[346] = 2.486711e+00
x[347] = 1.570175e-04
x[348] = -3.128930e-01
x[349] = -1.042889e-01
x[350] = -8.708424e-04
x[351] = 2.926054e+01
x[352] = 3.308657e+01
x[353] = 3.000089e+01
x[354] = 7.304641e+00
x[355] = 2.434566e+00
x[356] = -2.784037e-04
x[357] = -5.217033e-01
x[358] = -1.738394e-01
x[359] = -1.021400e-03
x[360] = 3.278244e+01
x[361] = 3.426039e+01
x[362] = 3.000049e+01
x[363] = 7.043789e+00
x[364] = 2.347647e+00
x[365] = -7.891040e-04
x[366] = -7.304733e-01
x[367] = -2.433381e-01
x[368] = 2.993991e-03
x[369] = 3.612171e+01
x[370] = 3.537338e+01
x[371] = 3.000085e+01
x[372] = 6.678552e+00
x[373] = 2.225978e+00
x[374] = 7.078916e-04
x[375] = -9.392257e-01
x[376] = -3.128542e-01
x[377] = -1.955441e-03
x[378] = 3.922618e+01
x[379] = 3.640815e+01
x[380] = 3.000071e+01
x[381] = 6.208940e+00
x[382] = 2.069551e+00
x[383] = -2.698289e-04
x[384] = -1.147971e+00
x[385] = -3.823959e-01
x[386] = -1.149161e-03
x[387] = 4.204366e+01
x[388] = 3.734733e+01
x[389] = 3.000029e+01
x[390] = 5.634954e+00
x[391] = 1.878353e+00
x[392] = -8.444093e-04
x[393] = -1.356725e+00
x[394] = -4.519907e-01
x[395] = 1.137844e-05
x[396] = 4.452195e+01
x[397] = 3.817351e+01
x[398] = 2.999987e+01
x[399] = 4.956591e+00
x[400] = 1.652357e+00
x[401] = -8.387201e-04
x[402] = -1.565434e+00
x[403] = -5.216270e-01
x[404] = -4.177658e-04
x[405] = 4.660889e+01
x[406] = 3.886928e+01
x[407] = 2.999935e+01
x[408] = 4.173874e+00
x[409] = 1.391544e+00
x[410] = -1.047603e-03
x[411] = -1.774082e+00
x[412] = -5.912920e-01
x[413] = 2.208586e-03
x[414] = 4.825231e+01
x[415] = 3.941723e+01
x[416] = 2.999938e+01
x[417] = 3.286833e+00
x[418] = 1.095898e+00
x[419] = 5.669003e-05
x[420] = -1.982671e+00
x[421] = -6.609544e-01
x[422] = 7.500371e-04
x[423] = 4.940006e+01
x[424] = 3.979994e+01
x[425] = 2.999959e+01
x[426] = 2.295498e+00
x[427] = 7.654206e-01
x[428] = 4.317086e-04
x[429] = -2.191224e+00
x[430] = -7.306005e-01
x[431] = 7.721664e-04
x[432] = 5.000000e+01
x[433] = 4.000000e+01
x[434] = 3.000000e+01
x[435] = 1.199886e+00
x[436] = 4.001203e-01
x[437] = 8.177918e-04
x[438] = -2.399773e+00
x[439] = -8.002407e-01
x[440] = -1.635620e-03
x[441] = 5.000000e+01
x[442] = 4.000000e+01
x[443] = 3.000000e+01
x[444] = -4.595027e-08
x[445] = -1.527075e-08
x[446] = -1.837717e-08
x[447] = 0.000000e+00
x[448] = 0.000000e+00
x[449] = 0.000000e+00


Objective value
f(x*) = 7.288301e+01
11
sh: 1: gnuplot: not found

